100
3442
92 48
47 141
68 37
59 165
19 125
79 86
7 142
7 136
90 188
72 74
6 80
7 173
39 17
45 171
20 195
90 82
21 132
73 159
22 130
27 138
88 101
40 131
74 164
39 45
69 166
94 26
67 86
73 65
1 79
17 30
52 155
97 186
84 82
78 71
27 144
61 38
75 148
46 22
34 152
24 62
24 93
14 85
20 195
63 39
60 186
19 123
95 177
66 73
58 130
68 129
12 89
77 150
45 77
23 144
20 102
46 21
38 199
63 64
69 107
58 97
32 107
21 174
95 136
34 143
10 106
85 109
67 148
22 176
29 83
63 62
83 187
76 119
32 158
31 93
39 134
67 137
80 26
25 96
7 187
73 190
23 107
19 53
32 14
77 93
22 35
40 103
89 59
50 155
48 139
40 120
89 88
87 103
53 168
75 193
12 150
56 110
17 126
9 169
100 109
41 114
